Rodando pra 1h

Optimize a model with 250129 rows, 374360 columns and 13706229 nonzeros
Coefficient statistics:
  Matrix range    [1e+00, 1e+04]
  Objective range [2e-01, 2e-01]
  Bounds range    [1e+00, 1e+04]
  RHS range       [1e+00, 1e+04]
Presolve removed 2 rows and 2 columns (presolve time = 6s) ...
Presolve removed 3 rows and 3 columns (presolve time = 17s) ...
Presolve removed 6 rows and 6 columns (presolve time = 23s) ...
Presolve removed 6 rows and 6 columns (presolve time = 32s) ...
Presolve removed 6 rows and 6 columns (presolve time = 39s) ...
Presolve removed 6 rows and 6 columns (presolve time = 43s) ...
Presolve removed 6 rows and 6 columns (presolve time = 46s) ...
Presolve removed 6 rows and 6 columns (presolve time = 54s) ...
Presolve removed 6 rows and 6 columns (presolve time = 57s) ...
Presolve removed 6 rows and 6 columns (presolve time = 60s) ...
Presolve removed 6 rows and 6 columns (presolve time = 67s) ...
Presolve removed 6 rows and 6 columns (presolve time = 70s) ...
Presolve removed 6 rows and 6 columns (presolve time = 75s) ...
Presolve removed 6 rows and 6 columns (presolve time = 81s) ...
Presolve removed 6 rows and 6 columns (presolve time = 86s) ...
Presolve removed 6 rows and 6 columns (presolve time = 91s) ...
Presolve removed 6 rows and 6 columns (presolve time = 96s) ...
Presolve removed 6 rows and 6 columns (presolve time = 101s) ...
Presolve removed 6 rows and 6 columns (presolve time = 107s) ...
Presolve removed 6 rows and 6 columns (presolve time = 113s) ...
Presolve removed 6 rows and 6 columns (presolve time = 116s) ...
Presolve removed 6 rows and 6 columns (presolve time = 121s) ...
Presolve removed 6 rows and 6 columns (presolve time = 127s) ...
Presolve removed 6 rows and 6 columns (presolve time = 130s) ...
Presolve removed 6 rows and 6 columns (presolve time = 136s) ...
Presolve removed 6 rows and 6 columns (presolve time = 142s) ...
Presolve removed 6 rows and 6 columns (presolve time = 147s) ...
Presolve removed 6 rows and 6 columns (presolve time = 150s) ...
Presolve removed 6 rows and 6 columns (presolve time = 155s) ...
Presolve removed 6 rows and 6 columns (presolve time = 161s) ...
Presolve removed 6 rows and 6 columns (presolve time = 171s) ...
Presolve removed 6 rows and 6 columns (presolve time = 175s) ...
Presolve removed 6 rows and 6 columns (presolve time = 195s) ...
Presolve removed 6 rows and 6 columns
Presolve time: 194.86s
Presolved: 250123 rows, 374354 columns, 13706187 nonzeros
Variable types: 249500 continuous, 124854 integer (124850 binary)
Optimize a model with 250123 rows, 374354 columns and 13706187 nonzeros
Coefficient statistics:
  Matrix range    [1e+00, 1e+04]
  Objective range [2e-01, 2e-01]
  Bounds range    [1e+00, 1e+04]
  RHS range       [1e+00, 2e+04]
Presolve removed 0 rows and 0 columns (presolve time = 6s) ...
Presolve removed 0 rows and 0 columns (presolve time = 11s) ...
Presolved: 250123 rows, 374354 columns, 13706187 nonzeros


Root simplex log...

Iteration    Objective       Primal Inf.    Dual Inf.      Time
       0    0.0000000e+00   1.514975e+03   0.000000e+00    244s
    1090    0.0000000e+00   0.000000e+00   0.000000e+00    246s

Root relaxation: objective 0.000000e+00, 1090 iterations, 18.51 seconds

    Nodes    |    Current Node    |     Objective Bounds      |     Work
 Expl Unexpl |  Obj  Depth IntInf | Incumbent    BestBd   Gap | It/Node Time

     0     0    0.00000    0  525          -    0.00000      -     - 3600s

Explored 0 nodes (218005 simplex iterations) in 3600.65 seconds
Thread count was 1 (of 4 available processors)

Time limit reached
Best objective -, best bound 0.000000000000e+00, gap -
Tempo: 3582.24 segundos

Error code = 10004
Var::get
